n_res = 4;
rc = [ 22, 32, 25, 26 ];
n_tasks = 30;
d = [ 7, 7, 4, 8, 9, 3, 9, 10, 6, 2, 7, 9, 10, 9, 4, 5, 3, 3, 2, 3, 3, 10, 7, 9, 1, 2, 1, 3, 8, 2 ];
rr = [| 22, 22, 22, 22, 22, 22, 22, 22, 22, 22, 22, 22, 22, 22, 22, 22, 22, 22, 22, 22, 22, 22, 22, 22, 22, 22, 22, 22, 22, 22
      | 32, 32, 32, 32, 32, 32, 32, 32, 32, 32, 32, 32, 32, 32, 32, 32, 32, 32, 32, 32, 32, 32, 32, 32, 32, 32, 32, 32, 32, 32
      | 25, 25, 25, 25, 25, 25, 25, 25, 25, 25, 25, 25, 25, 25, 25, 25, 25, 25, 25, 25, 25, 25, 25, 25, 25, 25, 25, 25, 25, 25
      | 26, 26, 26, 26, 26, 26, 26, 26, 26, 26, 26, 26, 26, 26, 26, 26, 26, 26, 26, 26, 26, 26, 26, 26, 26, 26, 26, 26, 26, 26|];
suc = [ { 13, 18 },
       { 22 },
       { 4, 8, 10 },
       { 5, 17, 20 },
       { 6, 9 },
       { 7, 11, 18 },
       { 12, 14, 21 },
       { 14, 15 },
       { 13, 18 },
       { 17 },
       { 16, 23, 25 },
       { 19, 27 },
       { 14, 23, 26 },
       { 22 },
       { 20, 25, 26 },
       { 24, 26 },
       { 22 },
       { 19, 24, 29 },
       { 23 },
       { 29 },
       { 25 },
       { 30 },
       { 28 },
       { 27, 30 },
       { 28, 30 },
       { 27, 29 },
       { 28 },
       {  },
       {  },
       {  } ];
